TCS_Benchmarks/redos_fix/corpus1_output_distinct_4965_4964_17_0.txt
(CASCADE|RESTRICT|NO ACTION|SET DEFAULT)+(CASCADE|RESTRICT|NO ACTION|SET NULL)+
(CASCADE|RESTRICT|NO ACTION|SET DEFAULT)+
S.*